160 163 167 166 164 165 154 153 155 156 159 157 158 145 146 144 143 142 147 148 152 149 150 151 141 140 139 138 137 136 135 134 133 132 131 130 129 128 127 126 125 124 117 116 115 114 112 113 161 111 110 109 108 107 542 541 543 544 545 546 547 103 104 105 106 118 119 120 121 122 123 73 74 75 72 71 70 69 68 67 66 65 64 76 77 78 62 63 61 60 59 58 57 81 80 79 88 89 90 87 86 85 82 83 56 55 53 84 51 50 52 54 49 48 47 44 43 42 39 41 40 38 37 36 35 34 33 32 30 31 29 28 27 26 25 24 21 22 23 12 13 14 15 11 10 9 8 7 6 5 4 3 2 1 0 573 572 571 460 459 458 457 456 455 454 438 437 436 435 434 433 432 430 429 428 427 426 425 424 423 422 421 420 419 417 418 410 411 412 356 357 355 354 353 413 414 416 415 352 351 350 349 348 347 362 363 361 358 359 360 401 402 403 400 406 407 408 405 404 409 384 383 385 387 386 382 431 445 444 443 439 440 441 450 449 442 446 448 447 381 389 388 390 392 391 393 394 395 396 371 372 373 374 375 376 379 380 378 377 315 314 316 313 312 311 310 309 308 307 505 504 503 502 451 501 500 499 453 452 461 462 463 464 465 466 467 468 469 470 496 497 498 519 518 520 517 516 515 514 527 512 513 511 510 509 506 507 508 302 301 303 304 306 305 318 317 319 320 321 322 323 324 325 326 327 328 329 366 342 365 367 368 369 370 398 397 399 364 346 345 344 343 341 340 330 331 332 333 339 338 337 336 335 334 283 284 285 286 287 280 281 282 279 278 288 289 290 277 276 275 274 273 272 271 267 268 269 270 293 292 291 294 295 296 297 298 266 265 264 263 262 261 260 259 258 299 300 257 256 255 253 254 252 251 250 249 248 241 242 243 244 245 247 246 238 239 240 237 236 235 234 232 233 533 532 531 530 529 528 522 521 523 526 490 491 492 493 525 524 494 495 471 472 473 474 570 18 17 16 19 20 568 569 567 566 565 564 563 562 561 560 559 558 557 552 553 554 556 555 45 46 91 92 93 94 95 96 97 98 99 100 102 101 551 550 549 548 478 477 479 480 476 475 482 481 483 484 485 486 489 488 534 487 535 536 537 539 538 540 176 177 178 187 188 230 231 229 228 227 189 225 226 190 191 192 219 218 220 221 222 224 223 217 216 215 214 213 212 211 210 209 205 206 207 208 203 204 202 201 200 199 198 197 196 195 194 193 184 183 185 186 182 179 181 180 169 171 175 174 173 172 170 168 162